26
trans-stilbene optimized with PySCF/geomeTRIC pbe/6-31g*; converged=True
C -0.6468987067 -0.2095368272  0.0000000000
C  0.6468987067  0.2095368272 -0.0000000000
H -0.8505022017 -1.2888033929  0.0000000000
H  0.8505022017  1.2888033929  0.0000000000
C -1.8481882694  0.6272962843 -0.0000000000
C -1.8197669262  2.0438678480 -0.0000000000
C -3.0034051921  2.7862870012 -0.0000000000
C -4.2517592877  2.1405001041 -0.0000000000
C -4.3011787574  0.7390926740 -0.0000000000
C -3.1154779663 -0.0040920714 -0.0000000000
H -0.8596034013  2.5696540140 -0.0000000000
H -2.9543188826  3.8804155502 -0.0000000000
H -5.1762046784  2.7269019575 -0.0000000000
H -5.2665150624  0.2220247759  0.0000000000
H -3.1596928863 -1.0995488198 -0.0000000000
C  1.8481882694 -0.6272962843 -0.0000000000
C  1.8197669262 -2.0438678480 -0.0000000000
C  3.0034051921 -2.7862870012 -0.0000000000
C  4.2517592877 -2.1405001041 -0.0000000000
C  4.3011787574 -0.7390926740 -0.0000000000
C  3.1154779663  0.0040920713 -0.0000000000
H  0.8596034013 -2.5696540140 -0.0000000000
H  2.9543188826 -3.8804155502 -0.0000000000
H  5.1762046784 -2.7269019575 -0.0000000000
H  5.2665150624 -0.2220247759 -0.0000000000
H  3.1596928863  1.0995488198 -0.0000000000
