16
para-nitroaniline optimized with PySCF/geomeTRIC pbe/6-31g*; converged=True
C  1.3776949126 -0.0009004338  0.0000000000
C  0.6840923847  1.2201019583 -0.0000000000
C -0.7063906874  1.2213976342 -0.0000000000
C -1.4320260928 -0.0002772509 -0.0000000000
C -0.7068833534 -1.2222310059 -0.0000000000
C  0.6836188774 -1.2215854720  0.0000000000
N  2.8367075316 -0.0013030202  0.0000000000
O  3.4165770031  1.1014156979 -0.0000000000
O  3.4162418601 -1.1041254756  0.0000000000
N -2.8022268898  0.0000931969 -0.0000000000
H -3.3260375110 -0.8683531167 -0.0000000000
H -3.3269659508  0.8680065094 -0.0000000000
H  1.2547241985  2.1512523996 -0.0000000000
H -1.2511894012  2.1718064821 -0.0000000000
H -1.2520645737 -2.1724168165 -0.0000000000
H  1.2537546565 -2.1530476046  0.0000000000
