24
trans-azobenzene optimized with PySCF pbe/6-31g*; energy=-571.909626251669 Ha; max_grad=2.389295e-02 Ha/Bohr
N -0.6115349835  0.0000000582 -0.0000000411
N  0.6115342688  0.0000000216 -0.0000000011
C  1.9823468702 -0.0000000610 -0.0000000289
C  2.7550250112 -1.0647365093 -0.6163791990
C  4.1311672206 -1.0456180307 -0.6002382426
C  4.8461846931 -0.0000000295 -0.0000000195
C  4.1311672576  1.0456180482  0.6002382518
C  2.7550250087  1.0647365106  0.6163791910
H  2.1980350239 -1.8640598384 -1.0769743286
H  4.6841149311 -1.8659332282 -1.0771559734
H  5.9290430458  0.0000000008  0.0000000019
H  4.6841149374  1.8659332423  1.0771559861
H  2.1980349962  1.8640598842  1.0769743587
C -1.9823449683 -0.0000003878  0.0000002289
C -2.7550265826  1.0647370681 -0.6163796194
C -4.1311668417  1.0456183343 -0.6002382099
C -4.8461842844 -0.0000001672  0.0000000979
C -4.1311666399 -1.0456182686  0.6002381541
C -2.7550265695 -1.0647370253  0.6163796086
H -2.1980348732  1.8640600199 -1.0769744373
H -4.6841148284  1.8659332017 -1.0771559527
H -5.9290428864  0.0000000084 -0.0000000076
H -4.6841147817 -1.8659330999  1.0771558913
H -2.1980350324 -1.8640597524  1.0769742907
